HFSDDW
15	9	3
0	5	1	14	2	93
0	27	1	89	2	95
0	95	1	61	2	12
0	68	1	46	2	17
0	81	1	29	2	3
0	56	1	8	2	45
0	32	1	84	2	45
0	28	1	22	2	80
0	59	1	99	2	52
0	43	1	82	2	78
0	18	1	57	2	53
0	97	1	25	2	65
0	38	1	76	2	78
0	79	1	8	2	19
0	55	1	1	2	10
LBCmax: 295
RELDUE
-1	260	4	5
-1	224	8	3
-1	206	5	8
-1	261	6	8
-1	213	1	4
-1	218	2	3
-1	251	7	5
-1	242	7	3
-1	251	7	2
-1	219	7	7
-1	251	7	5
-1	260	5	7
-1	213	6	4
-1	246	9	8
-1	260	7	5
DDW
239	281
217	231
204	208
238	284
204	222
205	231
241	261
235	249
236	266
212	226
243	259
247	273
192	234
231	261
234	286
